n=6;
m=7;

r=2;
s=15;


num_o= 9;

def_o= array2d(1..num_o,1..4,
[ 1,3,15,5,
  2,1,16,5,
  3,1,12,4,
  3,6,5,2,
  4,1,5,2,
  4,5,8,3,
  5,1,12,4,
  5,6,7,2,
  6,1,20,6
]);

num_v= 7;

def_v= array2d(1..num_v,1..4,
[ 1,1,15,6,
  1,3,12,3,
  1,4,12,3,
  1,7,16,5,
  3,6,12,4,
  5,3,7,2,
  5,4,8,2
]);